%SETS
JOBS     = 1..10;
MACHINES = 1..50;
SPEED    = 5;

time        = array3d(JOBS,MACHINES,1..SPEED,[26, 9, 6, 5, 4, 26, 9, 6, 5, 4, 16, 5, 3, 3, 2, 1, 1, 1, 1, 1, 1, 1, 1, 1, 1, 4, 1, 1, 1, 1, 40, 14, 10, 8, 7, 4, 1, 1, 1, 1, 3, 1, 1, 1, 1, 11, 3, 2, 2, 2, 17, 5, 4, 3, 3, 30, 10, 7, 6, 5, 41, 14, 10, 8, 7, 8, 2, 1, 1, 1, 62, 21, 15, 12, 11, 1, 1, 1, 1, 1, 12, 4, 2, 2, 2, 5, 1, 1, 1, 1, 10, 3, 2, 2, 1, 15, 5, 3, 3, 2, 17, 6, 4, 3, 3, 13, 4, 3, 2, 2, 6, 2, 1, 1, 1, 6, 2, 1, 1, 1, 6, 2, 1, 1, 1, 33, 11, 8, 6, 6, 13, 4, 3, 2, 2, 22, 7, 5, 4, 4, 17, 6, 4, 3, 3, 14, 5, 3, 2, 2, 34, 11, 8, 6, 6, 21, 7, 5, 4, 3, 9, 3, 2, 1, 1, 91, 31, 22, 18, 16, 6, 2, 1, 1, 1, 3, 1, 1, 1, 1, 24, 8, 6, 5, 4, 17, 6, 4, 3, 3, 5, 1, 1, 1, 1, 2, 1, 1, 1, 1, 20, 6, 4, 4, 3, 8, 3, 2, 1, 1, 2, 1, 1, 1, 1, 17, 6, 4, 3, 3, 25, 8, 6, 5, 4, 1, 1, 1, 1, 1, 17, 6, 4, 3, 3, 2, 1, 1, 1, 1, 40, 14, 9, 8, 7, 36, 12, 8, 7, 6, 7, 2, 1, 1, 1, 2, 1, 1, 1, 1, 64, 22, 15, 13, 11, 18, 6, 4, 3, 3, 3, 1, 1, 1, 1, 3, 1, 1, 1, 1, 47, 16, 11, 9, 8, 20, 7, 5, 4, 3, 7, 2, 1, 1, 1, 22, 7, 5, 4, 3, 9, 3, 2, 1, 1, 40, 14, 9, 8, 7, 17, 6, 4, 3, 3, 86, 30, 21, 17, 15, 19, 6, 4, 3, 3, 60, 20, 14, 12, 10, 7, 2, 1, 1, 1, 19, 6, 4, 3, 3, 18, 6, 4, 3, 3, 43, 14, 10, 8, 7, 1, 1, 1, 1, 1, 46, 16, 11, 9, 8, 42, 14, 10, 8, 7, 13, 4, 3, 2, 2, 1, 1, 1, 1, 1, 37, 13, 9, 7, 6, 29, 10, 7, 5, 5, 65, 22, 15, 13, 11, 21, 7, 5, 4, 3, 88, 30, 21, 18, 15, 9, 3, 2, 1, 1, 10, 3, 2, 2, 1, 33, 11, 8, 6, 6, 31, 10, 7, 6, 5, 33, 11, 8, 6, 6, 58, 20, 14, 11, 10, 32, 11, 7, 6, 5, 29, 10, 7, 6, 5, 47, 16, 11, 9, 8, 26, 9, 6, 5, 4, 9, 3, 2, 1, 1, 45, 15, 11, 9, 8, 7, 2, 1, 1, 1, 31, 10, 7, 6, 5, 19, 6, 4, 4, 3, 12, 4, 3, 2, 2, 5, 1, 1, 1, 1, 56, 19, 13, 11, 10, 2, 1, 1, 1, 1, 42, 14, 10, 8, 7, 29, 10, 7, 6, 5, 16, 5, 3, 3, 2, 28, 9, 6, 5, 5, 8, 2, 2, 1, 1, 51, 17, 12, 10, 9, 5, 1, 1, 1, 1, 22, 7, 5, 4, 4, 16, 5, 3, 3, 2, 28, 9, 7, 5, 5, 16, 5, 4, 3, 3, 78, 27, 19, 16, 14, 49, 17, 12, 10, 8, 59, 20, 14, 12, 10, 1, 1, 1, 1, 1, 4, 1, 1, 1, 1, 16, 5, 4, 3, 3, 34, 11, 8, 6, 6, 11, 3, 2, 2, 2, 21, 7, 5, 4, 3, 1, 1, 1, 1, 1, 26, 9, 6, 5, 4, 29, 10, 7, 6, 5, 13, 4, 3, 2, 2, 3, 1, 1, 1, 1, 13, 4, 3, 2, 2, 34, 11, 8, 7, 6, 22, 7, 5, 4, 4, 55, 19, 13, 11, 10, 22, 7, 5, 4, 4, 5, 1, 1, 1, 1, 23, 8, 5, 4, 4, 1, 1, 1, 1, 1, 35, 12, 8, 7, 6, 5, 2, 1, 1, 1, 60, 21, 14, 12, 10, 16, 5, 4, 3, 2, 15, 5, 3, 3, 2, 3, 1, 1, 1, 1, 42, 14, 10, 8, 7, 64, 22, 15, 13, 11, 30, 10, 7, 6, 5, 28, 9, 6, 5, 5, 31, 10, 7, 6, 5, 35, 12, 8, 7, 6, 32, 11, 7, 6, 5, 3, 1, 1, 1, 1, 28, 9, 6, 5, 5, 62, 21, 15, 12, 11, 1, 1, 1, 1, 1, 5, 1, 1, 1, 1, 37, 12, 9, 7, 6, 1, 1, 1, 1, 1, 8, 2, 2, 1, 1, 50, 17, 12, 10, 9, 11, 4, 2, 2, 2, 59, 20, 14, 12, 10, 8, 3, 2, 1, 1, 12, 4, 3, 2, 2, 2, 1, 1, 1, 1, 43, 15, 10, 8, 7, 70, 24, 17, 14, 12, 5, 1, 1, 1, 1, 9, 3, 2, 1, 1, 29, 10, 7, 5, 5, 2, 1, 1, 1, 1, 1, 1, 1, 1, 1, 10, 3, 2, 2, 1, 12, 4, 3, 2, 2, 20, 7, 5, 4, 3, 20, 7, 5, 4, 3, 10, 3, 2, 2, 1, 14, 4, 3, 2, 2, 7, 2, 1, 1, 1, 5, 2, 1, 1, 1, 38, 13, 9, 7, 6, 3, 1, 1, 1, 1, 15, 5, 3, 3, 2, 3, 1, 1, 1, 1, 43, 15, 10, 8, 7, 47, 16, 11, 9, 8, 3, 1, 1, 1, 1, 33, 11, 8, 6, 5, 66, 22, 16, 13, 11, 12, 4, 3, 2, 2, 38, 13, 9, 7, 6, 66, 23, 16, 13, 11, 1, 1, 1, 1, 1, 8, 2, 2, 1, 1, 1, 1, 1, 1, 1, 5, 1, 1, 1, 1, 1, 1, 1, 1, 1, 1, 1, 1, 1, 1, 27, 9, 6, 5, 4, 8, 3, 2, 1, 1, 48, 16, 11, 9, 8, 10, 3, 2, 2, 1, 65, 22, 16, 13, 11, 3, 1, 1, 1, 1, 20, 7, 5, 4, 3, 9, 3, 2, 1, 1, 42, 14, 10, 8, 7, 10, 3, 2, 2, 1, 3, 1, 1, 1, 1, 15, 5, 3, 3, 2, 7, 2, 1, 1, 1, 35, 12, 8, 7, 6, 34, 11, 8, 7, 6, 1, 1, 1, 1, 1, 1, 1, 1, 1, 1, 64, 22, 15, 13, 11, 10, 3, 2, 2, 1, 9, 3, 2, 1, 1, 8, 2, 2, 1, 1, 7, 2, 1, 1, 1, 38, 13, 9, 7, 6, 7, 2, 1, 1, 1, 32, 11, 8, 6, 5, 28, 9, 7, 5, 5, 20, 7, 5, 4, 3, 29, 10, 7, 6, 5, 4, 1, 1, 1, 1, 16, 5, 3, 3, 2, 17, 6, 4, 3, 3, 1, 1, 1, 1, 1, 6, 2, 1, 1, 1, 70, 24, 17, 14, 12, 27, 9, 6, 5, 5, 99, 34, 24, 20, 17, 11, 4, 2, 2, 2, 37, 12, 9, 7, 6, 23, 8, 5, 4, 4, 23, 8, 5, 4, 4, 3, 1, 1, 1, 1, 6, 2, 1, 1, 1, 1, 1, 1, 1, 1, 18, 6, 4, 3, 3, 10, 3, 2, 2, 1, 5, 1, 1, 1, 1, 12, 4, 2, 2, 2, 19, 6, 4, 3, 3, 32, 11, 7, 6, 5, 23, 7, 5, 4, 4, 26, 9, 6, 5, 4, 23, 8, 5, 4, 4, 12, 4, 2, 2, 2, 10, 3, 2, 2, 1, 21, 7, 5, 4, 3, 35, 12, 8, 7, 6, 65, 22, 15, 13, 11, 45, 15, 11, 9, 8, 20, 7, 5, 4, 3, 45, 15, 11, 9, 8, 1, 1, 1, 1, 1, 41, 14, 10, 8, 7, 5, 1, 1, 1, 1, 29, 10, 7, 6, 5, 45, 15, 11, 9, 8, 9, 3, 2, 1, 1, 13, 4, 3, 2, 2, 109, 37, 26, 22, 19, 7, 2, 1, 1, 1, 36, 12, 8, 7, 6, 13, 4, 3, 2, 2, 9, 3, 2, 1, 1, 38, 13, 9, 7, 6, 15, 5, 3, 3, 2, 32, 11, 7, 6, 5, 6, 2, 1, 1, 1, 44, 15, 11, 9, 8, 32, 11, 7, 6, 5, 17, 6, 4, 3, 3, 40, 14, 9, 8, 7, 65, 22, 15, 13, 11, 40, 13, 9, 8, 7, 9, 3, 2, 1, 1, 32, 11, 8, 6, 5, 24, 8, 6, 5, 4, 47, 16, 11, 9, 8, 13, 4, 3, 2, 2, 15, 5, 3, 3, 2, 2, 1, 1, 1, 1, 6, 2, 1, 1, 1, 19, 6, 4, 3, 3, 19, 6, 4, 3, 3, 32, 11, 7, 6, 5, 8, 3, 2, 1, 1, 3, 1, 1, 1, 1, 5, 1, 1, 1, 1, 14, 5, 3, 2, 2, 5, 1, 1, 1, 1, 3, 1, 1, 1, 1, 33, 11, 8, 6, 6, 62, 21, 15, 12, 11, 1, 1, 1, 1, 1, 1, 1, 1, 1, 1, 8, 3, 2, 1, 1, 22, 7, 5, 4, 4, 72, 24, 17, 14, 12, 22, 7, 5, 4, 4, 29, 10, 7, 5, 5, 27, 9, 6, 5, 4, 75, 26, 18, 15, 13, 50, 17, 12, 10, 9, 11, 4, 2, 2, 2, 44, 15, 10, 9, 8, 7, 2, 1, 1, 1, 110, 38, 27, 22, 19, 13, 4, 3, 2, 2, 20, 7, 5, 4, 3, 27, 9, 6, 5, 4, 9, 3, 2, 1, 1, 52, 18, 12, 10, 9, 118, 40, 29, 24, 21, 21, 7, 5, 4, 3, 6, 2, 1, 1, 1, 8, 3, 2, 1, 1, 44, 15, 10, 8, 7, 21, 7, 5, 4, 3, 20, 6, 4, 4, 3, 4, 1, 1, 1, 1, 34, 12, 8, 7, 6, 4, 1, 1, 1, 1, 5, 1, 1, 1, 1, 22, 7, 5, 4, 4, 24, 8, 6, 5, 4, 5, 1, 1, 1, 1, 70, 24, 17, 14, 12, 31, 11, 7, 6, 5, 41, 14, 10, 8, 7, 39, 13, 9, 7, 7, 19, 6, 4, 3, 3, 25, 8, 6, 5, 4, 1, 1, 1, 1, 1, 22, 7, 5, 4, 4, 24, 8, 5, 4, 4, 28, 9, 6, 5, 5, 5, 2, 1, 1, 1, 10, 3, 2, 2, 1, 93, 32, 23, 19, 16, 8, 2, 2, 1, 1, 31, 10, 7, 6, 5, 7, 2, 1, 1, 1, 22, 7, 5, 4, 3, 53, 18, 13, 10, 9, 43, 15, 10, 8, 7, 1, 1, 1, 1, 1, 14, 4, 3, 2, 2, 12, 4, 3, 2, 2, 59, 20, 14, 12, 10, 1, 1, 1, 1, 1, 15, 5, 3, 3, 2, 103, 35, 25, 20, 18, 1, 1, 1, 1, 1, 28, 9, 7, 5, 5, 34, 11, 8, 6, 6, 2, 1, 1, 1, 1, 7, 2, 1, 1, 1, 16, 5, 4, 3, 3, 5, 2, 1, 1, 1, 69, 24, 17, 14, 12, 32, 11, 7, 6, 5, 2, 1, 1, 1, 1, 53, 18, 13, 10, 9, 8, 3, 2, 1, 1, 13, 4, 3, 2, 2, 25, 8, 6, 5, 4, 17, 6, 4, 3, 3, 19, 6, 4, 4, 3, 73, 25, 17, 14, 13, 12, 4, 3, 2, 2, 19, 6, 4, 3, 3, 5, 1, 1, 1, 1, 1, 1, 1, 1, 1, 19, 6, 4, 3, 3, 2, 1, 1, 1, 1, 29, 10, 7, 5, 5, 6, 2, 1, 1, 1, 18, 6, 4, 3, 3, 43, 15, 10, 8, 7, 30, 10, 7, 6, 5, 14, 4, 3, 2, 2, 29, 10, 7, 6, 5, 10, 3, 2, 2, 1, 62, 21, 15, 12, 11, 9, 3, 2, 1, 1, 24, 8, 6, 5, 4, 15, 5, 3, 3, 2, 1, 1, 1, 1, 1, 13, 4, 3, 2, 2, 23, 7, 5, 4, 4, 16, 5, 4, 3, 2, 71, 24, 17, 14, 12, 3, 1, 1, 1, 1, 36, 12, 8, 7, 6, 25, 8, 6, 5, 4, 11, 3, 2, 2, 2, 20, 7, 5, 4, 3, 3, 1, 1, 1, 1, 23, 8, 5, 4, 4, 3, 1, 1, 1, 1, 23, 7, 5, 4, 4, 46, 15, 11, 9, 8, 13, 4, 3, 2, 2, 1, 1, 1, 1, 1, 6, 2, 1, 1, 1, 21, 7, 5, 4, 3, 24, 8, 6, 5, 4, 76, 26, 18, 15, 13, 58, 20, 14, 11, 10, 8, 3, 2, 1, 1, 3, 1, 1, 1, 1, 44, 15, 10, 9, 8, 19, 6, 4, 3, 3, 87, 30, 21, 17, 15, 1, 1, 1, 1, 1, 11, 3, 2, 2, 2, 35, 12, 8, 7, 6, 21, 7, 5, 4, 3, 43, 15, 10, 8, 7, 35, 12, 8, 7, 6, 11, 3, 2, 2, 2, 12, 4, 3, 2, 2, 6, 2, 1, 1, 1, 42, 14, 10, 8, 7, 14, 5, 3, 3, 2, 48, 16, 11, 9, 8, 76, 26, 18, 15, 13, 10, 3, 2, 2, 1, 11, 4, 2, 2, 2, 16, 5, 4, 3, 3, 35, 12, 8, 7, 6, 1, 1, 1, 1, 1, 14, 5, 3, 2, 2, 41, 14, 10, 8, 7, 4, 1, 1, 1, 1, 36, 12, 8, 7, 6, 11, 3, 2, 2, 1, 1, 1, 1, 1, 1, 33, 11, 8, 6, 6, 50, 17, 12, 10, 9, 97, 33, 23, 19, 17, 4, 1, 1, 1, 1, 23, 8, 5, 4, 4, 8, 2, 2, 1, 1, 55, 19, 13, 11, 10, 2, 1, 1, 1, 1, 5, 1, 1, 1, 1, 2, 1, 1, 1, 1, 9, 3, 2, 1, 1, 79, 27, 19, 16, 14, 11, 4, 2, 2, 2, 21, 7, 5, 4, 3, 13, 4, 3, 2, 2, 102, 35, 24, 20, 18, 32, 11, 7, 6, 5, 47, 16, 11, 9, 8, 3, 1, 1, 1, 1, 71, 24, 17, 14, 12, 8, 2, 2, 1, 1, 30, 10, 7, 6, 5, 9, 3, 2, 1, 1, 27, 9, 6, 5, 4, 1, 1, 1, 1, 1, 12, 4, 3, 2, 2, 78, 26, 19, 15, 14, 3, 1, 1, 1, 1, 11, 4, 2, 2, 2, 69, 24, 17, 14, 12, 1, 1, 1, 1, 1, 47, 16, 11, 9, 8, 47, 16, 11, 9, 8, 39, 13, 9, 8, 7, 55, 19, 13, 11, 9, 12, 4, 3, 2, 2, 9, 3, 2, 1, 1, 19, 6, 4, 3, 3, 8, 3, 2, 1, 1, 7, 2, 1, 1, 1, 1, 1, 1, 1, 1, 11, 3, 2, 2, 2, 4, 1, 1, 1, 1, 36, 12, 9, 7, 6, 29, 10, 7, 5, 5, 51, 17, 12, 10, 9, 16, 5, 4, 3, 3, 7, 2, 1, 1, 1, 36, 12, 9, 7, 6, 5, 1, 1, 1, 1, 12, 4, 3, 2, 2, 25, 8, 6, 5, 4, 26, 9, 6, 5, 4, 17, 5, 4, 3, 3, 26, 9, 6, 5, 4, 6, 2, 1, 1, 1, 16, 5, 4, 3, 3, 9, 3, 2, 1, 1, 4, 1, 1, 1, 1, 1, 1, 1, 1, 1, 5, 2, 1, 1, 1, 13, 4, 3, 2, 2]);
energy      = array3d(JOBS,MACHINES,1..SPEED,[77, 91, 94, 95, 96, 77, 91, 94, 95, 96, 85, 95, 97, 97, 98, 99, 99, 99, 99, 99, 99, 99, 99, 99, 99, 96, 99, 99, 99, 99, 67, 86, 90, 92, 93, 96, 99, 99, 99, 99, 97, 99, 99, 99, 99, 89, 97, 98, 98, 98, 84, 95, 96, 97, 97, 74, 90, 93, 94, 95, 66, 86, 90, 92, 93, 92, 98, 99, 99, 99, 53, 81, 86, 88, 89, 99, 99, 99, 99, 99, 88, 96, 98, 98, 98, 95, 99, 99, 99, 99, 90, 97, 98, 98, 99, 86, 95, 97, 97, 98, 84, 94, 96, 97, 97, 87, 96, 97, 98, 98, 94, 98, 99, 99, 99, 94, 98, 99, 99, 99, 94, 98, 99, 99, 99, 71, 89, 92, 94, 94, 87, 96, 97, 98, 98, 80, 93, 95, 96, 96, 84, 94, 96, 97, 97, 86, 95, 97, 98, 98, 71, 89, 92, 94, 94, 81, 93, 95, 96, 97, 91, 97, 98, 99, 99, 40, 73, 80, 83, 85, 94, 98, 99, 99, 99, 97, 99, 99, 99, 99, 78, 92, 94, 95, 96, 84, 94, 96, 97, 97, 95, 99, 99, 99, 99, 98, 99, 99, 99, 99, 81, 94, 96, 96, 97, 92, 97, 98, 99, 99, 98, 99, 99, 99, 99, 84, 94, 96, 97, 97, 77, 92, 94, 95, 96, 99, 99, 99, 99, 99, 84, 94, 96, 97, 97, 98, 99, 99, 99, 99, 67, 86, 91, 92, 93, 69, 88, 92, 93, 94, 93, 98, 99, 99, 99, 98, 99, 99, 99, 99, 52, 80, 86, 87, 89, 83, 94, 96, 97, 97, 97, 99, 99, 99, 99, 97, 99, 99, 99, 99, 62, 85, 89, 91, 92, 81, 93, 95, 96, 97, 93, 98, 99, 99, 99, 80, 93, 95, 96, 97, 91, 97, 98, 99, 99, 67, 86, 91, 92, 93, 84, 94, 96, 97, 97, 42, 74, 81, 84, 86, 82, 94, 96, 97, 97, 54, 81, 86, 88, 90, 93, 98, 99, 99, 99, 82, 94, 96, 97, 97, 83, 94, 96, 97, 97, 65, 86, 90, 92, 93, 99, 99, 99, 99, 99, 63, 85, 89, 91, 92, 65, 86, 90, 92, 93, 87, 96, 97, 98, 98, 99, 99, 99, 99, 99, 69, 87, 91, 93, 94, 74, 90, 93, 95, 95, 52, 80, 86, 87, 89, 81, 93, 95, 96, 97, 41, 74, 81, 83, 86, 91, 97, 98, 99, 99, 90, 97, 98, 98, 99, 71, 89, 92, 94, 94, 73, 90, 93, 94, 95, 71, 89, 92, 94, 94, 55, 81, 86, 89, 90, 72, 89, 93, 94, 95, 74, 90, 93, 94, 95, 62, 85, 89, 91, 92, 77, 91, 94, 95, 96, 91, 97, 98, 99, 99, 63, 86, 89, 91, 92, 93, 98, 99, 99, 99, 73, 90, 93, 94, 95, 82, 94, 96, 96, 97, 88, 96, 97, 98, 98, 95, 99, 99, 99, 99, 57, 82, 87, 89, 90, 98, 99, 99, 99, 99, 65, 86, 90, 92, 93, 74, 90, 93, 94, 95, 85, 95, 97, 97, 98, 75, 91, 94, 95, 95, 92, 98, 98, 99, 99, 60, 84, 88, 90, 91, 95, 99, 99, 99, 99, 80, 93, 95, 96, 96, 85, 95, 97, 97, 98, 75, 91, 93, 95, 95, 85, 95, 96, 97, 97, 45, 76, 82, 85, 86, 61, 84, 88, 90, 92, 55, 81, 86, 88, 90, 99, 99, 99, 99, 99, 96, 99, 99, 99, 99, 85, 95, 96, 97, 97, 71, 89, 92, 94, 94, 89, 97, 98, 98, 98, 81, 93, 95, 96, 97, 99, 99, 99, 99, 99, 77, 91, 94, 95, 96, 74, 90, 93, 94, 95, 87, 96, 97, 98, 98, 97, 99, 99, 99, 99, 87, 96, 97, 98, 98, 71, 89, 92, 93, 94, 80, 93, 95, 96, 96, 57, 82, 87, 89, 90, 80, 93, 95, 96, 96, 95, 99, 99, 99, 99, 79, 92, 95, 96, 96, 99, 99, 99, 99, 99, 70, 88, 92, 93, 94, 95, 98, 99, 99, 99, 54, 81, 86, 88, 90, 85, 95, 96, 97, 98, 86, 95, 97, 97, 98, 97, 99, 99, 99, 99, 65, 86, 90, 92, 93, 52, 80, 86, 87, 89, 74, 90, 93, 94, 95, 75, 91, 94, 95, 95, 73, 90, 93, 94, 95, 70, 88, 92, 93, 94, 72, 89, 93, 94, 95, 97, 99, 99, 99, 99, 75, 91, 94, 95, 95, 53, 81, 86, 88, 89, 99, 99, 99, 99, 99, 95, 99, 99, 99, 99, 69, 88, 91, 93, 94, 99, 99, 99, 99, 99, 92, 98, 98, 99, 99, 60, 84, 88, 90, 91, 89, 96, 98, 98, 98, 55, 81, 86, 88, 90, 92, 97, 98, 99, 99, 88, 96, 97, 98, 98, 98, 99, 99, 99, 99, 65, 86, 90, 92, 93, 49, 78, 84, 86, 88, 95, 99, 99, 99, 99, 91, 97, 98, 99, 99, 74, 90, 93, 95, 95, 98, 99, 99, 99, 99, 99, 99, 99, 99, 99, 90, 97, 98, 98, 99, 88, 96, 97, 98, 98, 81, 93, 95, 96, 97, 81, 93, 95, 96, 97, 90, 97, 98, 98, 99, 86, 96, 97, 98, 98, 93, 98, 99, 99, 99, 95, 98, 99, 99, 99, 68, 87, 91, 93, 94, 97, 99, 99, 99, 99, 86, 95, 97, 97, 98, 97, 99, 99, 99, 99, 65, 86, 90, 92, 93, 62, 85, 89, 91, 92, 97, 99, 99, 99, 99, 71, 89, 92, 94, 95, 51, 80, 85, 87, 89, 88, 96, 97, 98, 98, 68, 87, 91, 93, 94, 51, 79, 85, 87, 89, 99, 99, 99, 99, 99, 92, 98, 98, 99, 99, 99, 99, 99, 99, 99, 95, 99, 99, 99, 99, 99, 99, 99, 99, 99, 99, 99, 99, 99, 99, 76, 91, 94, 95, 96, 92, 97, 98, 99, 99, 61, 85, 89, 91, 92, 90, 97, 98, 98, 99, 52, 80, 85, 87, 89, 97, 99, 99, 99, 99, 81, 93, 95, 96, 97, 91, 97, 98, 99, 99, 65, 86, 90, 92, 93, 90, 97, 98, 98, 99, 97, 99, 99, 99, 99, 86, 95, 97, 97, 98, 93, 98, 99, 99, 99, 70, 88, 92, 93, 94, 71, 89, 92, 93, 94, 99, 99, 99, 99, 99, 99, 99, 99, 99, 99, 52, 80, 86, 87, 89, 90, 97, 98, 98, 99, 91, 97, 98, 99, 99, 92, 98, 98, 99, 99, 93, 98, 99, 99, 99, 68, 87, 91, 93, 94, 93, 98, 99, 99, 99, 72, 89, 92, 94, 95, 75, 91, 93, 95, 95, 81, 93, 95, 96, 97, 74, 90, 93, 94, 95, 96, 99, 99, 99, 99, 85, 95, 97, 97, 98, 84, 94, 96, 97, 97, 99, 99, 99, 99, 99, 94, 98, 99, 99, 99, 49, 78, 84, 86, 88, 76, 91, 94, 95, 95, 37, 71, 78, 81, 84, 89, 96, 98, 98, 98, 69, 88, 91, 93, 94, 79, 92, 95, 96, 96, 79, 92, 95, 96, 96, 97, 99, 99, 99, 99, 94, 98, 99, 99, 99, 99, 99, 99, 99, 99, 83, 94, 96, 97, 97, 90, 97, 98, 98, 99, 95, 99, 99, 99, 99, 88, 96, 98, 98, 98, 82, 94, 96, 97, 97, 72, 89, 93, 94, 95, 79, 93, 95, 96, 96, 77, 91, 94, 95, 96, 79, 92, 95, 96, 96, 88, 96, 98, 98, 98, 90, 97, 98, 98, 99, 81, 93, 95, 96, 97, 70, 88, 92, 93, 94, 52, 80, 86, 87, 89, 63, 86, 89, 91, 92, 81, 93, 95, 96, 97, 63, 86, 89, 91, 92, 99, 99, 99, 99, 99, 66, 86, 90, 92, 93, 95, 99, 99, 99, 99, 74, 90, 93, 94, 95, 63, 86, 89, 91, 92, 91, 97, 98, 99, 99, 87, 96, 97, 98, 98, 33, 69, 77, 80, 82, 93, 98, 99, 99, 99, 69, 88, 92, 93, 94, 87, 96, 97, 98, 98, 91, 97, 98, 99, 99, 68, 87, 91, 93, 94, 86, 95, 97, 97, 98, 72, 89, 93, 94, 95, 94, 98, 99, 99, 99, 64, 86, 89, 91, 92, 72, 89, 93, 94, 95, 84, 94, 96, 97, 97, 67, 86, 91, 92, 93, 52, 80, 86, 87, 89, 67, 87, 91, 92, 93, 91, 97, 98, 99, 99, 72, 89, 92, 94, 95, 78, 92, 94, 95, 96, 62, 85, 89, 91, 92, 87, 96, 97, 98, 98, 86, 95, 97, 97, 98, 98, 99, 99, 99, 99, 94, 98, 99, 99, 99, 82, 94, 96, 97, 97, 82, 94, 96, 97, 97, 72, 89, 93, 94, 95, 92, 97, 98, 99, 99, 97, 99, 99, 99, 99, 95, 99, 99, 99, 99, 86, 95, 97, 98, 98, 95, 99, 99, 99, 99, 97, 99, 99, 99, 99, 71, 89, 92, 94, 94, 53, 81, 86, 88, 89, 99, 99, 99, 99, 99, 99, 99, 99, 99, 99, 92, 97, 98, 99, 99, 80, 93, 95, 96, 96, 48, 78, 84, 86, 88, 80, 93, 95, 96, 96, 74, 90, 93, 95, 95, 76, 91, 94, 95, 96, 47, 77, 83, 86, 87, 60, 84, 88, 90, 91, 89, 96, 98, 98, 98, 64, 86, 90, 91, 92, 93, 98, 99, 99, 99, 33, 68, 76, 80, 82, 87, 96, 97, 98, 98, 81, 93, 95, 96, 97, 76, 91, 94, 95, 96, 91, 97, 98, 99, 99, 59, 83, 88, 90, 91, 30, 67, 74, 78, 81, 81, 93, 95, 96, 97, 94, 98, 99, 99, 99, 92, 97, 98, 99, 99, 64, 86, 90, 92, 93, 81, 93, 95, 96, 97, 81, 94, 96, 96, 97, 96, 99, 99, 99, 99, 71, 88, 92, 93, 94, 96, 99, 99, 99, 99, 95, 99, 99, 99, 99, 80, 93, 95, 96, 96, 78, 92, 94, 95, 96, 95, 99, 99, 99, 99, 49, 78, 84, 86, 88, 73, 89, 93, 94, 95, 66, 86, 90, 92, 93, 67, 87, 91, 93, 93, 82, 94, 96, 97, 97, 77, 92, 94, 95, 96, 99, 99, 99, 99, 99, 80, 93, 95, 96, 96, 78, 92, 95, 96, 96, 75, 91, 94, 95, 95, 95, 98, 99, 99, 99, 90, 97, 98, 98, 99, 39, 72, 79, 82, 85, 92, 98, 98, 99, 99, 73, 90, 93, 94, 95, 93, 98, 99, 99, 99, 80, 93, 95, 96, 97, 58, 83, 87, 90, 91, 65, 86, 90, 92, 93, 99, 99, 99, 99, 99, 86, 96, 97, 98, 98, 88, 96, 97, 98, 98, 55, 81, 86, 88, 90, 99, 99, 99, 99, 99, 86, 95, 97, 97, 98, 35, 70, 77, 81, 83, 99, 99, 99, 99, 99, 75, 91, 93, 95, 95, 71, 89, 92, 94, 94, 98, 99, 99, 99, 99, 93, 98, 99, 99, 99, 85, 95, 96, 97, 97, 95, 98, 99, 99, 99, 50, 78, 84, 86, 88, 72, 89, 93, 94, 95, 98, 99, 99, 99, 99, 58, 83, 87, 90, 91, 92, 97, 98, 99, 99, 87, 96, 97, 98, 98, 77, 92, 94, 95, 96, 84, 94, 96, 97, 97, 82, 94, 96, 96, 97, 48, 77, 84, 86, 87, 88, 96, 97, 98, 98, 82, 94, 96, 97, 97, 95, 99, 99, 99, 99, 99, 99, 99, 99, 99, 82, 94, 96, 97, 97, 98, 99, 99, 99, 99, 74, 90, 93, 95, 95, 94, 98, 99, 99, 99, 83, 94, 96, 97, 97, 65, 86, 90, 92, 93, 74, 90, 93, 94, 95, 86, 96, 97, 98, 98, 74, 90, 93, 94, 95, 90, 97, 98, 98, 99, 53, 81, 86, 88, 89, 91, 97, 98, 99, 99, 78, 92, 94, 95, 96, 86, 95, 97, 97, 98, 99, 99, 99, 99, 99, 87, 96, 97, 98, 98, 79, 93, 95, 96, 96, 85, 95, 96, 97, 98, 49, 78, 84, 86, 88, 97, 99, 99, 99, 99, 69, 88, 92, 93, 94, 77, 92, 94, 95, 96, 89, 97, 98, 98, 98, 81, 93, 95, 96, 97, 97, 99, 99, 99, 99, 79, 92, 95, 96, 96, 97, 99, 99, 99, 99, 79, 93, 95, 96, 96, 63, 86, 89, 91, 92, 87, 96, 97, 98, 98, 99, 99, 99, 99, 99, 94, 98, 99, 99, 99, 81, 93, 95, 96, 97, 78, 92, 94, 95, 96, 46, 77, 83, 86, 87, 55, 81, 86, 89, 90, 92, 97, 98, 99, 99, 97, 99, 99, 99, 99, 64, 86, 90, 91, 92, 82, 94, 96, 97, 97, 41, 74, 81, 84, 86, 99, 99, 99, 99, 99, 89, 97, 98, 98, 98, 70, 88, 92, 93, 94, 81, 93, 95, 96, 97, 65, 86, 90, 92, 93, 70, 88, 92, 93, 94, 89, 97, 98, 98, 98, 88, 96, 97, 98, 98, 94, 98, 99, 99, 99, 65, 86, 90, 92, 93, 86, 95, 97, 97, 98, 61, 85, 89, 91, 92, 46, 77, 83, 86, 87, 90, 97, 98, 98, 99, 89, 96, 98, 98, 98, 85, 95, 96, 97, 97, 70, 88, 92, 93, 94, 99, 99, 99, 99, 99, 86, 95, 97, 98, 98, 66, 86, 90, 92, 93, 96, 99, 99, 99, 99, 69, 88, 92, 93, 94, 89, 97, 98, 98, 99, 99, 99, 99, 99, 99, 71, 89, 92, 94, 94, 60, 84, 88, 90, 91, 37, 71, 79, 82, 84, 96, 99, 99, 99, 99, 79, 92, 95, 96, 96, 92, 98, 98, 99, 99, 57, 82, 87, 89, 90, 98, 99, 99, 99, 99, 95, 99, 99, 99, 99, 98, 99, 99, 99, 99, 91, 97, 98, 99, 99, 45, 76, 82, 85, 86, 89, 96, 98, 98, 98, 81, 93, 95, 96, 97, 87, 96, 97, 98, 98, 36, 70, 78, 81, 83, 72, 89, 93, 94, 95, 62, 85, 89, 91, 92, 97, 99, 99, 99, 99, 49, 78, 84, 86, 88, 92, 98, 98, 99, 99, 74, 90, 93, 94, 95, 91, 97, 98, 99, 99, 76, 91, 94, 95, 96, 99, 99, 99, 99, 99, 88, 96, 97, 98, 98, 45, 77, 82, 86, 86, 97, 99, 99, 99, 99, 89, 96, 98, 98, 98, 50, 78, 84, 86, 88, 99, 99, 99, 99, 99, 62, 85, 89, 91, 92, 62, 85, 89, 91, 92, 67, 87, 91, 92, 93, 57, 82, 87, 89, 91, 88, 96, 97, 98, 98, 91, 97, 98, 99, 99, 82, 94, 96, 97, 97, 92, 97, 98, 99, 99, 93, 98, 99, 99, 99, 99, 99, 99, 99, 99, 89, 97, 98, 98, 98, 96, 99, 99, 99, 99, 69, 88, 91, 93, 94, 74, 90, 93, 95, 95, 60, 84, 88, 90, 91, 85, 95, 96, 97, 97, 93, 98, 99, 99, 99, 69, 88, 91, 93, 94, 95, 99, 99, 99, 99, 88, 96, 97, 98, 98, 77, 92, 94, 95, 96, 77, 91, 94, 95, 96, 84, 95, 96, 97, 97, 77, 91, 94, 95, 96, 94, 98, 99, 99, 99, 85, 95, 96, 97, 97, 91, 97, 98, 99, 99, 96, 99, 99, 99, 99, 99, 99, 99, 99, 99, 95, 98, 99, 99, 99, 87, 96, 97, 98, 98]);
precedence  = array2d(JOBS,MACHINES,[29, 8, 20, 19, 17, 33, 21, 13, 43, 1, 14, 9, 16, 26, 31, 48, 47, 30, 18, 12, 5, 32, 44, 22, 0, 46, 49, 11, 40, 35, 37, 39, 23, 42, 34, 6, 25, 24, 41, 3, 15, 10, 28, 4, 27, 7, 36, 38, 45, 2, 27, 8, 1, 42, 6, 45, 7, 38, 18, 23, 17, 49, 35, 39, 21, 4, 10, 12, 30, 40, 28, 36, 3, 5, 44, 0, 32, 31, 25, 24, 20, 41, 16, 47, 29, 11, 22, 46, 34, 37, 14, 26, 15, 43, 9, 2, 13, 33, 48, 19, 46, 9, 28, 1, 22, 31, 17, 5, 7, 15, 8, 14, 32, 42, 38, 44, 40, 3, 37, 2, 24, 41, 12, 48, 4, 23, 47, 10, 0, 39, 30, 36, 19, 21, 26, 29, 16, 11, 33, 35, 25, 49, 13, 45, 6, 43, 27, 34, 20, 18, 43, 28, 23, 24, 10, 34, 40, 48, 0, 27, 3, 44, 4, 15, 17, 11, 37, 2, 29, 26, 32, 18, 22, 38, 20, 36, 8, 14, 19, 6, 1, 12, 5, 13, 9, 46, 47, 45, 31, 25, 7, 30, 41, 49, 16, 42, 33, 21, 39, 35, 33, 40, 3, 44, 22, 0, 26, 12, 49, 2, 10, 46, 28, 6, 1, 19, 16, 21, 25, 8, 7, 11, 29, 17, 32, 4, 36, 43, 14, 35, 41, 31, 42, 47, 18, 24, 13, 45, 39, 20, 37, 27, 38, 48, 9, 5, 34, 23, 30, 15, 42, 33, 5, 9, 26, 3, 23, 28, 8, 46, 47, 13, 1, 4, 25, 14, 18, 38, 11, 32, 48, 29, 43, 16, 6, 17, 45, 36, 7, 40, 22, 24, 27, 34, 35, 20, 19, 2, 21, 44, 49, 39, 30, 10, 0, 12, 37, 15, 31, 41, 13, 11, 2, 39, 23, 26, 41, 27, 48, 24, 14, 8, 21, 6, 7, 35, 33, 32, 16, 46, 49, 3, 22, 37, 4, 1, 36, 12, 0, 44, 42, 40, 10, 9, 34, 15, 47, 29, 18, 19, 25, 31, 20, 17, 45, 5, 28, 30, 43, 38, 45, 38, 37, 47, 21, 41, 25, 13, 28, 3, 49, 8, 2, 15, 11, 23, 36, 24, 10, 12, 4, 6, 19, 33, 17, 14, 31, 20, 30, 44, 32, 26, 42, 29, 34, 48, 43, 7, 16, 35, 46, 0, 18, 40, 1, 9, 39, 22, 5, 27, 5, 35, 39, 7, 3, 44, 32, 23, 28, 31, 8, 15, 21, 30, 2, 10, 40, 22, 33, 37, 9, 12, 38, 43, 47, 36, 42, 26, 1, 16, 34, 13, 4, 18, 27, 46, 19, 24, 11, 20, 29, 49, 14, 41, 17, 6, 0, 45, 48, 25, 24, 41, 13, 18, 31, 28, 8, 5, 34, 27, 35, 43, 20, 2, 32, 4, 1, 40, 17, 19, 25, 48, 45, 49, 44, 29, 39, 42, 30, 36, 22, 26, 14, 21, 9, 11, 23, 12, 6, 33, 10, 0, 46, 7, 37, 47, 15, 3, 38, 16]);
releaseDate = [0, 100, 20, 90, 60, 90, 10, 0, 60, 60];
dueDate     = [290, 515, 419, 447, 499, 460, 513, 326, 592, 431];